; benchmark generated from python API
(set-info :status unknown)
(declare-fun cell_1_8 () Int)
(declare-fun cell_2_1 () Int)
(declare-fun cell_3_5 () Int)
(declare-fun cell_4_4 () Int)
(declare-fun cell_5_3 () Int)
(declare-fun cell_6_9 () Int)
(declare-fun cell_1_1 () Int)
(declare-fun cell_3_1 () Int)
(declare-fun cell_4_1 () Int)
(declare-fun cell_5_1 () Int)
(declare-fun cell_6_1 () Int)
(declare-fun cell_7_1 () Int)
(declare-fun cell_8_1 () Int)
(declare-fun cell_9_1 () Int)
(declare-fun cell_1_2 () Int)
(declare-fun cell_2_2 () Int)
(declare-fun cell_3_2 () Int)
(declare-fun cell_4_2 () Int)
(declare-fun cell_5_2 () Int)
(declare-fun cell_6_2 () Int)
(declare-fun cell_7_2 () Int)
(declare-fun cell_8_2 () Int)
(declare-fun cell_9_2 () Int)
(declare-fun cell_1_3 () Int)
(declare-fun cell_2_3 () Int)
(declare-fun cell_3_3 () Int)
(declare-fun cell_4_3 () Int)
(declare-fun cell_6_3 () Int)
(declare-fun cell_7_3 () Int)
(declare-fun cell_8_3 () Int)
(declare-fun cell_9_3 () Int)
(declare-fun cell_1_4 () Int)
(declare-fun cell_2_4 () Int)
(declare-fun cell_3_4 () Int)
(declare-fun cell_5_4 () Int)
(declare-fun cell_6_4 () Int)
(declare-fun cell_7_4 () Int)
(declare-fun cell_8_4 () Int)
(declare-fun cell_9_4 () Int)
(declare-fun cell_1_5 () Int)
(declare-fun cell_2_5 () Int)
(declare-fun cell_4_5 () Int)
(declare-fun cell_5_5 () Int)
(declare-fun cell_6_5 () Int)
(declare-fun cell_7_5 () Int)
(declare-fun cell_8_5 () Int)
(declare-fun cell_9_5 () Int)
(declare-fun cell_1_6 () Int)
(declare-fun cell_2_6 () Int)
(declare-fun cell_3_6 () Int)
(declare-fun cell_4_6 () Int)
(declare-fun cell_5_6 () Int)
(declare-fun cell_6_6 () Int)
(declare-fun cell_7_6 () Int)
(declare-fun cell_8_6 () Int)
(declare-fun cell_9_6 () Int)
(declare-fun cell_1_7 () Int)
(declare-fun cell_2_7 () Int)
(declare-fun cell_3_7 () Int)
(declare-fun cell_4_7 () Int)
(declare-fun cell_5_7 () Int)
(declare-fun cell_6_7 () Int)
(declare-fun cell_7_7 () Int)
(declare-fun cell_8_7 () Int)
(declare-fun cell_9_7 () Int)
(declare-fun cell_2_8 () Int)
(declare-fun cell_3_8 () Int)
(declare-fun cell_4_8 () Int)
(declare-fun cell_5_8 () Int)
(declare-fun cell_6_8 () Int)
(declare-fun cell_7_8 () Int)
(declare-fun cell_8_8 () Int)
(declare-fun cell_9_8 () Int)
(declare-fun cell_1_9 () Int)
(declare-fun cell_2_9 () Int)
(declare-fun cell_3_9 () Int)
(declare-fun cell_4_9 () Int)
(declare-fun cell_5_9 () Int)
(declare-fun cell_7_9 () Int)
(declare-fun cell_8_9 () Int)
(declare-fun cell_9_9 () Int)
(assert
 (= cell_1_8 1))
(assert
 (= cell_2_1 1))
(assert
 (= cell_3_5 1))
(assert
 (= cell_4_4 1))
(assert
 (= cell_5_3 1))
(assert
 (= cell_6_9 1))
(assert
 (let (($x2437 (= cell_1_1 9)))
 (let (($x8893 (= cell_1_1 8)))
 (let (($x8120 (= cell_1_1 7)))
 (let (($x3042 (= cell_1_1 6)))
 (let (($x2547 (= cell_1_1 5)))
 (let (($x3178 (= cell_1_1 4)))
 (let (($x4250 (= cell_1_1 3)))
 (let (($x9103 (= cell_1_1 2)))
 (let (($x1659 (= cell_1_1 1)))
 (or $x1659 $x9103 $x4250 $x3178 $x2547 $x3042 $x8120 $x8893 $x2437)))))))))))
(assert
 (let (($x6762 (= cell_2_1 1)))
 (or $x6762 (= cell_2_1 2) (= cell_2_1 3) (= cell_2_1 4) (= cell_2_1 5) (= cell_2_1 6) (= cell_2_1 7) (= cell_2_1 8) (= cell_2_1 9))))
(assert
 (let (($x8415 (= cell_3_1 9)))
 (let (($x87 (= cell_3_1 8)))
 (let (($x9101 (= cell_3_1 7)))
 (let (($x5291 (= cell_3_1 6)))
 (let (($x7543 (= cell_3_1 5)))
 (let (($x2958 (= cell_3_1 4)))
 (let (($x7007 (= cell_3_1 3)))
 (let (($x1324 (= cell_3_1 2)))
 (let (($x8699 (= cell_3_1 1)))
 (or $x8699 $x1324 $x7007 $x2958 $x7543 $x5291 $x9101 $x87 $x8415)))))))))))
(assert
 (let (($x2433 (= cell_4_1 9)))
 (let (($x3580 (= cell_4_1 8)))
 (let (($x5099 (= cell_4_1 7)))
 (let (($x8925 (= cell_4_1 6)))
 (let (($x291 (= cell_4_1 5)))
 (let (($x1708 (= cell_4_1 4)))
 (let (($x7078 (= cell_4_1 3)))
 (let (($x9155 (= cell_4_1 2)))
 (let (($x4947 (= cell_4_1 1)))
 (or $x4947 $x9155 $x7078 $x1708 $x291 $x8925 $x5099 $x3580 $x2433)))))))))))
(assert
 (let (($x53 (= cell_5_1 9)))
 (let (($x5006 (= cell_5_1 8)))
 (let (($x6700 (= cell_5_1 7)))
 (let (($x4118 (= cell_5_1 6)))
 (let (($x5205 (= cell_5_1 5)))
 (let (($x1003 (= cell_5_1 4)))
 (let (($x135 (= cell_5_1 3)))
 (let (($x2710 (= cell_5_1 2)))
 (let (($x8908 (= cell_5_1 1)))
 (or $x8908 $x2710 $x135 $x1003 $x5205 $x4118 $x6700 $x5006 $x53)))))))))))
(assert
 (let (($x2849 (= cell_6_1 9)))
 (let (($x2183 (= cell_6_1 8)))
 (let (($x875 (= cell_6_1 7)))
 (let (($x1332 (= cell_6_1 6)))
 (let (($x3662 (= cell_6_1 5)))
 (let (($x9583 (= cell_6_1 4)))
 (let (($x4735 (= cell_6_1 3)))
 (let (($x5025 (= cell_6_1 2)))
 (let (($x9895 (= cell_6_1 1)))
 (or $x9895 $x5025 $x4735 $x9583 $x3662 $x1332 $x875 $x2183 $x2849)))))))))))
(assert
 (let (($x2370 (= cell_7_1 1)))
 (or $x2370 (= cell_7_1 2) (= cell_7_1 3) (= cell_7_1 4) (= cell_7_1 5) (= cell_7_1 6) (= cell_7_1 7) (= cell_7_1 8) (= cell_7_1 9))))
(assert
 (let (($x6111 (= cell_8_1 1)))
 (or $x6111 (= cell_8_1 2) (= cell_8_1 3) (= cell_8_1 4) (= cell_8_1 5) (= cell_8_1 6) (= cell_8_1 7) (= cell_8_1 8) (= cell_8_1 9))))
(assert
 (let (($x8583 (= cell_9_1 1)))
 (or $x8583 (= cell_9_1 2) (= cell_9_1 3) (= cell_9_1 4) (= cell_9_1 5) (= cell_9_1 6) (= cell_9_1 7) (= cell_9_1 8) (= cell_9_1 9))))
(assert
 (let (($x9997 (= cell_1_2 9)))
 (let (($x9061 (= cell_1_2 8)))
 (let (($x3482 (= cell_1_2 7)))
 (let (($x4120 (= cell_1_2 6)))
 (let (($x2828 (= cell_1_2 5)))
 (let (($x5171 (= cell_1_2 4)))
 (let (($x1931 (= cell_1_2 3)))
 (let (($x10207 (= cell_1_2 2)))
 (let (($x6642 (= cell_1_2 1)))
 (or $x6642 $x10207 $x1931 $x5171 $x2828 $x4120 $x3482 $x9061 $x9997)))))))))))
(assert
 (let (($x666 (= cell_2_2 1)))
 (or $x666 (= cell_2_2 2) (= cell_2_2 3) (= cell_2_2 4) (= cell_2_2 5) (= cell_2_2 6) (= cell_2_2 7) (= cell_2_2 8) (= cell_2_2 9))))
(assert
 (let (($x5456 (= cell_3_2 9)))
 (let (($x8474 (= cell_3_2 8)))
 (let (($x4510 (= cell_3_2 7)))
 (let (($x1978 (= cell_3_2 6)))
 (let (($x5813 (= cell_3_2 5)))
 (let (($x8480 (= cell_3_2 4)))
 (let (($x4571 (= cell_3_2 3)))
 (let (($x7432 (= cell_3_2 2)))
 (let (($x782 (= cell_3_2 1)))
 (or $x782 $x7432 $x4571 $x8480 $x5813 $x1978 $x4510 $x8474 $x5456)))))))))))
(assert
 (let (($x8033 (= cell_4_2 9)))
 (let (($x1168 (= cell_4_2 8)))
 (let (($x7015 (= cell_4_2 7)))
 (let (($x2438 (= cell_4_2 6)))
 (let (($x8590 (= cell_4_2 5)))
 (let (($x9163 (= cell_4_2 4)))
 (let (($x8037 (= cell_4_2 3)))
 (let (($x486 (= cell_4_2 2)))
 (let (($x9513 (= cell_4_2 1)))
 (or $x9513 $x486 $x8037 $x9163 $x8590 $x2438 $x7015 $x1168 $x8033)))))))))))
(assert
 (let (($x1343 (= cell_5_2 9)))
 (let (($x8907 (= cell_5_2 8)))
 (let (($x5162 (= cell_5_2 7)))
 (let (($x5876 (= cell_5_2 6)))
 (let (($x5487 (= cell_5_2 5)))
 (let (($x1740 (= cell_5_2 4)))
 (let (($x7895 (= cell_5_2 3)))
 (let (($x5918 (= cell_5_2 2)))
 (let (($x7799 (= cell_5_2 1)))
 (or $x7799 $x5918 $x7895 $x1740 $x5487 $x5876 $x5162 $x8907 $x1343)))))))))))
(assert
 (let (($x978 (= cell_6_2 9)))
 (let (($x9089 (= cell_6_2 8)))
 (let (($x81 (= cell_6_2 7)))
 (let (($x6963 (= cell_6_2 6)))
 (let (($x8895 (= cell_6_2 5)))
 (let (($x1874 (= cell_6_2 4)))
 (let (($x2002 (= cell_6_2 3)))
 (let (($x697 (= cell_6_2 2)))
 (let (($x1464 (= cell_6_2 1)))
 (or $x1464 $x697 $x2002 $x1874 $x8895 $x6963 $x81 $x9089 $x978)))))))))))
(assert
 (let (($x3607 (= cell_7_2 1)))
 (or $x3607 (= cell_7_2 2) (= cell_7_2 3) (= cell_7_2 4) (= cell_7_2 5) (= cell_7_2 6) (= cell_7_2 7) (= cell_7_2 8) (= cell_7_2 9))))
(assert
 (or (= cell_8_2 1) (= cell_8_2 2) (= cell_8_2 3) (= cell_8_2 4) (= cell_8_2 5) (= cell_8_2 6) (= cell_8_2 7) (= cell_8_2 8) (= cell_8_2 9)))
(assert
 (or (= cell_9_2 1) (= cell_9_2 2) (= cell_9_2 3) (= cell_9_2 4) (= cell_9_2 5) (= cell_9_2 6) (= cell_9_2 7) (= cell_9_2 8) (= cell_9_2 9)))
(assert
 (let (($x3780 (= cell_1_3 9)))
 (let (($x2854 (= cell_1_3 8)))
 (let (($x8071 (= cell_1_3 7)))
 (let (($x8616 (= cell_1_3 6)))
 (let (($x1345 (= cell_1_3 5)))
 (let (($x2569 (= cell_1_3 4)))
 (let (($x1837 (= cell_1_3 3)))
 (let (($x548 (= cell_1_3 2)))
 (let (($x8819 (= cell_1_3 1)))
 (or $x8819 $x548 $x1837 $x2569 $x1345 $x8616 $x8071 $x2854 $x3780)))))))))))
(assert
 (let (($x8497 (= cell_2_3 9)))
 (let (($x3633 (= cell_2_3 8)))
 (let (($x4464 (= cell_2_3 7)))
 (let (($x5658 (= cell_2_3 6)))
 (let (($x5583 (= cell_2_3 5)))
 (let (($x4640 (= cell_2_3 4)))
 (let (($x8905 (= cell_2_3 3)))
 (let (($x6899 (= cell_2_3 2)))
 (let (($x5110 (= cell_2_3 1)))
 (or $x5110 $x6899 $x8905 $x4640 $x5583 $x5658 $x4464 $x3633 $x8497)))))))))))
(assert
 (let (($x5576 (= cell_3_3 9)))
 (let (($x5390 (= cell_3_3 8)))
 (let (($x6157 (= cell_3_3 7)))
 (let (($x2562 (= cell_3_3 6)))
 (let (($x9471 (= cell_3_3 5)))
 (let (($x5357 (= cell_3_3 4)))
 (let (($x7881 (= cell_3_3 3)))
 (let (($x2696 (= cell_3_3 2)))
 (let (($x8718 (= cell_3_3 1)))
 (or $x8718 $x2696 $x7881 $x5357 $x9471 $x2562 $x6157 $x5390 $x5576)))))))))))
(assert
 (let (($x6357 (= cell_4_3 9)))
 (let (($x6045 (= cell_4_3 8)))
 (let (($x1150 (= cell_4_3 7)))
 (let (($x1298 (= cell_4_3 6)))
 (let (($x8705 (= cell_4_3 5)))
 (let (($x8549 (= cell_4_3 4)))
 (let (($x253 (= cell_4_3 3)))
 (let (($x2216 (= cell_4_3 2)))
 (let (($x8679 (= cell_4_3 1)))
 (or $x8679 $x2216 $x253 $x8549 $x8705 $x1298 $x1150 $x6045 $x6357)))))))))))
(assert
 (let (($x5812 (= cell_5_3 1)))
 (or $x5812 (= cell_5_3 2) (= cell_5_3 3) (= cell_5_3 4) (= cell_5_3 5) (= cell_5_3 6) (= cell_5_3 7) (= cell_5_3 8) (= cell_5_3 9))))
(assert
 (let (($x815 (= cell_6_3 9)))
 (let (($x9862 (= cell_6_3 8)))
 (let (($x4072 (= cell_6_3 7)))
 (let (($x859 (= cell_6_3 6)))
 (let (($x3229 (= cell_6_3 5)))
 (let (($x6148 (= cell_6_3 4)))
 (let (($x1647 (= cell_6_3 3)))
 (let (($x1650 (= cell_6_3 2)))
 (let (($x184 (= cell_6_3 1)))
 (or $x184 $x1650 $x1647 $x6148 $x3229 $x859 $x4072 $x9862 $x815)))))))))))
(assert
 (let (($x8978 (= cell_7_3 1)))
 (or $x8978 (= cell_7_3 2) (= cell_7_3 3) (= cell_7_3 4) (= cell_7_3 5) (= cell_7_3 6) (= cell_7_3 7) (= cell_7_3 8) (= cell_7_3 9))))
(assert
 (let (($x5826 (= cell_8_3 1)))
 (or $x5826 (= cell_8_3 2) (= cell_8_3 3) (= cell_8_3 4) (= cell_8_3 5) (= cell_8_3 6) (= cell_8_3 7) (= cell_8_3 8) (= cell_8_3 9))))
(assert
 (let (($x1706 (= cell_9_3 1)))
 (or $x1706 (= cell_9_3 2) (= cell_9_3 3) (= cell_9_3 4) (= cell_9_3 5) (= cell_9_3 6) (= cell_9_3 7) (= cell_9_3 8) (= cell_9_3 9))))
(assert
 (let (($x5775 (= cell_1_4 9)))
 (let (($x6625 (= cell_1_4 8)))
 (let (($x1626 (= cell_1_4 7)))
 (let (($x1329 (= cell_1_4 6)))
 (let (($x9164 (= cell_1_4 5)))
 (let (($x9543 (= cell_1_4 4)))
 (let (($x847 (= cell_1_4 3)))
 (let (($x4136 (= cell_1_4 2)))
 (let (($x1989 (= cell_1_4 1)))
 (or $x1989 $x4136 $x847 $x9543 $x9164 $x1329 $x1626 $x6625 $x5775)))))))))))
(assert
 (let (($x3798 (= cell_2_4 9)))
 (let (($x8708 (= cell_2_4 8)))
 (let (($x1084 (= cell_2_4 7)))
 (let (($x1748 (= cell_2_4 6)))
 (let (($x4769 (= cell_2_4 5)))
 (let (($x5269 (= cell_2_4 4)))
 (let (($x7286 (= cell_2_4 3)))
 (let (($x8243 (= cell_2_4 2)))
 (let (($x9783 (= cell_2_4 1)))
 (or $x9783 $x8243 $x7286 $x5269 $x4769 $x1748 $x1084 $x8708 $x3798)))))))))))
(assert
 (let (($x2298 (= cell_3_4 9)))
 (let (($x1549 (= cell_3_4 8)))
 (let (($x5897 (= cell_3_4 7)))
 (let (($x8263 (= cell_3_4 6)))
 (let (($x591 (= cell_3_4 5)))
 (let (($x2293 (= cell_3_4 4)))
 (let (($x311 (= cell_3_4 3)))
 (let (($x3483 (= cell_3_4 2)))
 (let (($x3913 (= cell_3_4 1)))
 (or $x3913 $x3483 $x311 $x2293 $x591 $x8263 $x5897 $x1549 $x2298)))))))))))
(assert
 (let (($x35 (= cell_4_4 1)))
 (or $x35 (= cell_4_4 2) (= cell_4_4 3) (= cell_4_4 4) (= cell_4_4 5) (= cell_4_4 6) (= cell_4_4 7) (= cell_4_4 8) (= cell_4_4 9))))
(assert
 (let (($x5500 (= cell_5_4 1)))
 (or $x5500 (= cell_5_4 2) (= cell_5_4 3) (= cell_5_4 4) (= cell_5_4 5) (= cell_5_4 6) (= cell_5_4 7) (= cell_5_4 8) (= cell_5_4 9))))
(assert
 (let (($x5866 (= cell_6_4 9)))
 (let (($x6377 (= cell_6_4 8)))
 (let (($x8462 (= cell_6_4 7)))
 (let (($x8885 (= cell_6_4 6)))
 (let (($x3118 (= cell_6_4 5)))
 (let (($x4973 (= cell_6_4 4)))
 (let (($x5097 (= cell_6_4 3)))
 (let (($x3996 (= cell_6_4 2)))
 (let (($x4866 (= cell_6_4 1)))
 (or $x4866 $x3996 $x5097 $x4973 $x3118 $x8885 $x8462 $x6377 $x5866)))))))))))
(assert
 (let (($x5433 (= cell_7_4 1)))
 (or $x5433 (= cell_7_4 2) (= cell_7_4 3) (= cell_7_4 4) (= cell_7_4 5) (= cell_7_4 6) (= cell_7_4 7) (= cell_7_4 8) (= cell_7_4 9))))
(assert
 (let (($x966 (= cell_8_4 1)))
 (or $x966 (= cell_8_4 2) (= cell_8_4 3) (= cell_8_4 4) (= cell_8_4 5) (= cell_8_4 6) (= cell_8_4 7) (= cell_8_4 8) (= cell_8_4 9))))
(assert
 (let (($x2044 (= cell_9_4 1)))
 (or $x2044 (= cell_9_4 2) (= cell_9_4 3) (= cell_9_4 4) (= cell_9_4 5) (= cell_9_4 6) (= cell_9_4 7) (= cell_9_4 8) (= cell_9_4 9))))
(assert
 (let (($x9347 (= cell_1_5 9)))
 (let (($x4881 (= cell_1_5 8)))
 (let (($x8909 (= cell_1_5 7)))
 (let (($x7446 (= cell_1_5 6)))
 (let (($x8425 (= cell_1_5 5)))
 (let (($x992 (= cell_1_5 4)))
 (let (($x6664 (= cell_1_5 3)))
 (let (($x5753 (= cell_1_5 2)))
 (let (($x2097 (= cell_1_5 1)))
 (or $x2097 $x5753 $x6664 $x992 $x8425 $x7446 $x8909 $x4881 $x9347)))))))))))
(assert
 (let (($x8730 (= cell_2_5 9)))
 (let (($x2392 (= cell_2_5 8)))
 (let (($x10021 (= cell_2_5 7)))
 (let (($x849 (= cell_2_5 6)))
 (let (($x454 (= cell_2_5 5)))
 (let (($x3924 (= cell_2_5 4)))
 (let (($x6995 (= cell_2_5 3)))
 (let (($x788 (= cell_2_5 2)))
 (let (($x7408 (= cell_2_5 1)))
 (or $x7408 $x788 $x6995 $x3924 $x454 $x849 $x10021 $x2392 $x8730)))))))))))
(assert
 (let (($x1078 (= cell_3_5 1)))
 (or $x1078 (= cell_3_5 2) (= cell_3_5 3) (= cell_3_5 4) (= cell_3_5 5) (= cell_3_5 6) (= cell_3_5 7) (= cell_3_5 8) (= cell_3_5 9))))
(assert
 (let (($x4318 (= cell_4_5 1)))
 (or $x4318 (= cell_4_5 2) (= cell_4_5 3) (= cell_4_5 4) (= cell_4_5 5) (= cell_4_5 6) (= cell_4_5 7) (= cell_4_5 8) (= cell_4_5 9))))
(assert
 (let (($x1517 (= cell_5_5 1)))
 (or $x1517 (= cell_5_5 2) (= cell_5_5 3) (= cell_5_5 4) (= cell_5_5 5) (= cell_5_5 6) (= cell_5_5 7) (= cell_5_5 8) (= cell_5_5 9))))
(assert
 (let (($x2334 (= cell_6_5 9)))
 (let (($x9469 (= cell_6_5 8)))
 (let (($x2084 (= cell_6_5 7)))
 (let (($x865 (= cell_6_5 6)))
 (let (($x9284 (= cell_6_5 5)))
 (let (($x6548 (= cell_6_5 4)))
 (let (($x4157 (= cell_6_5 3)))
 (let (($x8373 (= cell_6_5 2)))
 (let (($x6784 (= cell_6_5 1)))
 (or $x6784 $x8373 $x4157 $x6548 $x9284 $x865 $x2084 $x9469 $x2334)))))))))))
(assert
 (let (($x1183 (= cell_7_5 1)))
 (or $x1183 (= cell_7_5 2) (= cell_7_5 3) (= cell_7_5 4) (= cell_7_5 5) (= cell_7_5 6) (= cell_7_5 7) (= cell_7_5 8) (= cell_7_5 9))))
(assert
 (let (($x6809 (= cell_8_5 1)))
 (or $x6809 (= cell_8_5 2) (= cell_8_5 3) (= cell_8_5 4) (= cell_8_5 5) (= cell_8_5 6) (= cell_8_5 7) (= cell_8_5 8) (= cell_8_5 9))))
(assert
 (let (($x10253 (= cell_9_5 1)))
 (or $x10253 (= cell_9_5 2) (= cell_9_5 3) (= cell_9_5 4) (= cell_9_5 5) (= cell_9_5 6) (= cell_9_5 7) (= cell_9_5 8) (= cell_9_5 9))))
(assert
 (let (($x6571 (= cell_1_6 9)))
 (let (($x3010 (= cell_1_6 8)))
 (let (($x8276 (= cell_1_6 7)))
 (let (($x4517 (= cell_1_6 6)))
 (let (($x985 (= cell_1_6 5)))
 (let (($x9681 (= cell_1_6 4)))
 (let (($x7379 (= cell_1_6 3)))
 (let (($x6239 (= cell_1_6 2)))
 (let (($x6975 (= cell_1_6 1)))
 (or $x6975 $x6239 $x7379 $x9681 $x985 $x4517 $x8276 $x3010 $x6571)))))))))))
(assert
 (let (($x6873 (= cell_2_6 9)))
 (let (($x6248 (= cell_2_6 8)))
 (let (($x10010 (= cell_2_6 7)))
 (let (($x8310 (= cell_2_6 6)))
 (let (($x5800 (= cell_2_6 5)))
 (let (($x794 (= cell_2_6 4)))
 (let (($x994 (= cell_2_6 3)))
 (let (($x3986 (= cell_2_6 2)))
 (let (($x1265 (= cell_2_6 1)))
 (or $x1265 $x3986 $x994 $x794 $x5800 $x8310 $x10010 $x6248 $x6873)))))))))))
(assert
 (let (($x6406 (= cell_3_6 1)))
 (or $x6406 (= cell_3_6 2) (= cell_3_6 3) (= cell_3_6 4) (= cell_3_6 5) (= cell_3_6 6) (= cell_3_6 7) (= cell_3_6 8) (= cell_3_6 9))))
(assert
 (let (($x5541 (= cell_4_6 1)))
 (or $x5541 (= cell_4_6 2) (= cell_4_6 3) (= cell_4_6 4) (= cell_4_6 5) (= cell_4_6 6) (= cell_4_6 7) (= cell_4_6 8) (= cell_4_6 9))))
(assert
 (let (($x3233 (= cell_5_6 1)))
 (or $x3233 (= cell_5_6 2) (= cell_5_6 3) (= cell_5_6 4) (= cell_5_6 5) (= cell_5_6 6) (= cell_5_6 7) (= cell_5_6 8) (= cell_5_6 9))))
(assert
 (let (($x7081 (= cell_6_6 9)))
 (let (($x8069 (= cell_6_6 8)))
 (let (($x3280 (= cell_6_6 7)))
 (let (($x7653 (= cell_6_6 6)))
 (let (($x6178 (= cell_6_6 5)))
 (let (($x8229 (= cell_6_6 4)))
 (let (($x5334 (= cell_6_6 3)))
 (let (($x5405 (= cell_6_6 2)))
 (let (($x5962 (= cell_6_6 1)))
 (or $x5962 $x5405 $x5334 $x8229 $x6178 $x7653 $x3280 $x8069 $x7081)))))))))))
(assert
 (let (($x9209 (= cell_7_6 1)))
 (or $x9209 (= cell_7_6 2) (= cell_7_6 3) (= cell_7_6 4) (= cell_7_6 5) (= cell_7_6 6) (= cell_7_6 7) (= cell_7_6 8) (= cell_7_6 9))))
(assert
 (or (= cell_8_6 1) (= cell_8_6 2) (= cell_8_6 3) (= cell_8_6 4) (= cell_8_6 5) (= cell_8_6 6) (= cell_8_6 7) (= cell_8_6 8) (= cell_8_6 9)))
(assert
 (or (= cell_9_6 1) (= cell_9_6 2) (= cell_9_6 3) (= cell_9_6 4) (= cell_9_6 5) (= cell_9_6 6) (= cell_9_6 7) (= cell_9_6 8) (= cell_9_6 9)))
(assert
 (let (($x5217 (= cell_1_7 9)))
 (let (($x1149 (= cell_1_7 8)))
 (let (($x8090 (= cell_1_7 7)))
 (let (($x10018 (= cell_1_7 6)))
 (let (($x3257 (= cell_1_7 5)))
 (let (($x3430 (= cell_1_7 4)))
 (let (($x6462 (= cell_1_7 3)))
 (let (($x3408 (= cell_1_7 2)))
 (let (($x2564 (= cell_1_7 1)))
 (or $x2564 $x3408 $x6462 $x3430 $x3257 $x10018 $x8090 $x1149 $x5217)))))))))))
(assert
 (let (($x8579 (= cell_2_7 1)))
 (or $x8579 (= cell_2_7 2) (= cell_2_7 3) (= cell_2_7 4) (= cell_2_7 5) (= cell_2_7 6) (= cell_2_7 7) (= cell_2_7 8) (= cell_2_7 9))))
(assert
 (let (($x4960 (= cell_3_7 1)))
 (or $x4960 (= cell_3_7 2) (= cell_3_7 3) (= cell_3_7 4) (= cell_3_7 5) (= cell_3_7 6) (= cell_3_7 7) (= cell_3_7 8) (= cell_3_7 9))))
(assert
 (let (($x7005 (= cell_4_7 9)))
 (let (($x8703 (= cell_4_7 8)))
 (let (($x3220 (= cell_4_7 7)))
 (let (($x763 (= cell_4_7 6)))
 (let (($x9508 (= cell_4_7 5)))
 (let (($x5288 (= cell_4_7 4)))
 (let (($x3846 (= cell_4_7 3)))
 (let (($x8779 (= cell_4_7 2)))
 (let (($x2306 (= cell_4_7 1)))
 (or $x2306 $x8779 $x3846 $x5288 $x9508 $x763 $x3220 $x8703 $x7005)))))))))))
(assert
 (let (($x1609 (= cell_5_7 9)))
 (let (($x2664 (= cell_5_7 8)))
 (let (($x9057 (= cell_5_7 7)))
 (let (($x5094 (= cell_5_7 6)))
 (let (($x3706 (= cell_5_7 5)))
 (let (($x7878 (= cell_5_7 4)))
 (let (($x1541 (= cell_5_7 3)))
 (let (($x5322 (= cell_5_7 2)))
 (let (($x3448 (= cell_5_7 1)))
 (or $x3448 $x5322 $x1541 $x7878 $x3706 $x5094 $x9057 $x2664 $x1609)))))))))))
(assert
 (let (($x656 (= cell_6_7 9)))
 (let (($x5200 (= cell_6_7 8)))
 (let (($x8323 (= cell_6_7 7)))
 (let (($x6550 (= cell_6_7 6)))
 (let (($x8385 (= cell_6_7 5)))
 (let (($x10248 (= cell_6_7 4)))
 (let (($x8511 (= cell_6_7 3)))
 (let (($x2182 (= cell_6_7 2)))
 (let (($x4247 (= cell_6_7 1)))
 (or $x4247 $x2182 $x8511 $x10248 $x8385 $x6550 $x8323 $x5200 $x656)))))))))))
(assert
 (let (($x9971 (= cell_7_7 1)))
 (or $x9971 (= cell_7_7 2) (= cell_7_7 3) (= cell_7_7 4) (= cell_7_7 5) (= cell_7_7 6) (= cell_7_7 7) (= cell_7_7 8) (= cell_7_7 9))))
(assert
 (let (($x4915 (= cell_8_7 1)))
 (or $x4915 (= cell_8_7 2) (= cell_8_7 3) (= cell_8_7 4) (= cell_8_7 5) (= cell_8_7 6) (= cell_8_7 7) (= cell_8_7 8) (= cell_8_7 9))))
(assert
 (or (= cell_9_7 1) (= cell_9_7 2) (= cell_9_7 3) (= cell_9_7 4) (= cell_9_7 5) (= cell_9_7 6) (= cell_9_7 7) (= cell_9_7 8) (= cell_9_7 9)))
(assert
 (let (($x3418 (= cell_1_8 1)))
 (or $x3418 (= cell_1_8 2) (= cell_1_8 3) (= cell_1_8 4) (= cell_1_8 5) (= cell_1_8 6) (= cell_1_8 7) (= cell_1_8 8) (= cell_1_8 9))))
(assert
 (let (($x9493 (= cell_2_8 1)))
 (or $x9493 (= cell_2_8 2) (= cell_2_8 3) (= cell_2_8 4) (= cell_2_8 5) (= cell_2_8 6) (= cell_2_8 7) (= cell_2_8 8) (= cell_2_8 9))))
(assert
 (let (($x9001 (= cell_3_8 1)))
 (or $x9001 (= cell_3_8 2) (= cell_3_8 3) (= cell_3_8 4) (= cell_3_8 5) (= cell_3_8 6) (= cell_3_8 7) (= cell_3_8 8) (= cell_3_8 9))))
(assert
 (let (($x6884 (= cell_4_8 9)))
 (let (($x8920 (= cell_4_8 8)))
 (let (($x9452 (= cell_4_8 7)))
 (let (($x9099 (= cell_4_8 6)))
 (let (($x4270 (= cell_4_8 5)))
 (let (($x6792 (= cell_4_8 4)))
 (let (($x3839 (= cell_4_8 3)))
 (let (($x9911 (= cell_4_8 2)))
 (let (($x4663 (= cell_4_8 1)))
 (or $x4663 $x9911 $x3839 $x6792 $x4270 $x9099 $x9452 $x8920 $x6884)))))))))))
(assert
 (let (($x6166 (= cell_5_8 9)))
 (let (($x1400 (= cell_5_8 8)))
 (let (($x2280 (= cell_5_8 7)))
 (let (($x5517 (= cell_5_8 6)))
 (let (($x7323 (= cell_5_8 5)))
 (let (($x1296 (= cell_5_8 4)))
 (let (($x4483 (= cell_5_8 3)))
 (let (($x7401 (= cell_5_8 2)))
 (let (($x6246 (= cell_5_8 1)))
 (or $x6246 $x7401 $x4483 $x1296 $x7323 $x5517 $x2280 $x1400 $x6166)))))))))))
(assert
 (let (($x3034 (= cell_6_8 9)))
 (let (($x494 (= cell_6_8 8)))
 (let (($x9444 (= cell_6_8 7)))
 (let (($x7095 (= cell_6_8 6)))
 (let (($x3462 (= cell_6_8 5)))
 (let (($x5959 (= cell_6_8 4)))
 (let (($x8814 (= cell_6_8 3)))
 (let (($x2695 (= cell_6_8 2)))
 (let (($x8648 (= cell_6_8 1)))
 (or $x8648 $x2695 $x8814 $x5959 $x3462 $x7095 $x9444 $x494 $x3034)))))))))))
(assert
 (let (($x5360 (= cell_7_8 1)))
 (or $x5360 (= cell_7_8 2) (= cell_7_8 3) (= cell_7_8 4) (= cell_7_8 5) (= cell_7_8 6) (= cell_7_8 7) (= cell_7_8 8) (= cell_7_8 9))))
(assert
 (let (($x1378 (= cell_8_8 1)))
 (or $x1378 (= cell_8_8 2) (= cell_8_8 3) (= cell_8_8 4) (= cell_8_8 5) (= cell_8_8 6) (= cell_8_8 7) (= cell_8_8 8) (= cell_8_8 9))))
(assert
 (let (($x3074 (= cell_9_8 1)))
 (or $x3074 (= cell_9_8 2) (= cell_9_8 3) (= cell_9_8 4) (= cell_9_8 5) (= cell_9_8 6) (= cell_9_8 7) (= cell_9_8 8) (= cell_9_8 9))))
(assert
 (let (($x4612 (= cell_1_9 9)))
 (let (($x2495 (= cell_1_9 8)))
 (let (($x1483 (= cell_1_9 7)))
 (let (($x9474 (= cell_1_9 6)))
 (let (($x5862 (= cell_1_9 5)))
 (let (($x10156 (= cell_1_9 4)))
 (let (($x6187 (= cell_1_9 3)))
 (let (($x6878 (= cell_1_9 2)))
 (let (($x755 (= cell_1_9 1)))
 (or $x755 $x6878 $x6187 $x10156 $x5862 $x9474 $x1483 $x2495 $x4612)))))))))))
(assert
 (let (($x2447 (= cell_2_9 9)))
 (let (($x4049 (= cell_2_9 8)))
 (let (($x6901 (= cell_2_9 7)))
 (let (($x6211 (= cell_2_9 6)))
 (let (($x8948 (= cell_2_9 5)))
 (let (($x2356 (= cell_2_9 4)))
 (let (($x6016 (= cell_2_9 3)))
 (let (($x5868 (= cell_2_9 2)))
 (let (($x1194 (= cell_2_9 1)))
 (or $x1194 $x5868 $x6016 $x2356 $x8948 $x6211 $x6901 $x4049 $x2447)))))))))))
(assert
 (let (($x3784 (= cell_3_9 9)))
 (let (($x7183 (= cell_3_9 8)))
 (let (($x299 (= cell_3_9 7)))
 (let (($x2212 (= cell_3_9 6)))
 (let (($x4583 (= cell_3_9 5)))
 (let (($x4844 (= cell_3_9 4)))
 (let (($x2419 (= cell_3_9 3)))
 (let (($x7050 (= cell_3_9 2)))
 (let (($x9985 (= cell_3_9 1)))
 (or $x9985 $x7050 $x2419 $x4844 $x4583 $x2212 $x299 $x7183 $x3784)))))))))))
(assert
 (let (($x2601 (= cell_4_9 9)))
 (let (($x7952 (= cell_4_9 8)))
 (let (($x3822 (= cell_4_9 7)))
 (let (($x4609 (= cell_4_9 6)))
 (let (($x2505 (= cell_4_9 5)))
 (let (($x6883 (= cell_4_9 4)))
 (let (($x7108 (= cell_4_9 3)))
 (let (($x6485 (= cell_4_9 2)))
 (let (($x6997 (= cell_4_9 1)))
 (or $x6997 $x6485 $x7108 $x6883 $x2505 $x4609 $x3822 $x7952 $x2601)))))))))))
(assert
 (let (($x6612 (= cell_5_9 9)))
 (let (($x8536 (= cell_5_9 8)))
 (let (($x2835 (= cell_5_9 7)))
 (let (($x10050 (= cell_5_9 6)))
 (let (($x2574 (= cell_5_9 5)))
 (let (($x3151 (= cell_5_9 4)))
 (let (($x7774 (= cell_5_9 3)))
 (let (($x3720 (= cell_5_9 2)))
 (let (($x9359 (= cell_5_9 1)))
 (or $x9359 $x3720 $x7774 $x3151 $x2574 $x10050 $x2835 $x8536 $x6612)))))))))))
(assert
 (let (($x3385 (= cell_6_9 1)))
 (or $x3385 (= cell_6_9 2) (= cell_6_9 3) (= cell_6_9 4) (= cell_6_9 5) (= cell_6_9 6) (= cell_6_9 7) (= cell_6_9 8) (= cell_6_9 9))))
(assert
 (let (($x1580 (= cell_7_9 1)))
 (or $x1580 (= cell_7_9 2) (= cell_7_9 3) (= cell_7_9 4) (= cell_7_9 5) (= cell_7_9 6) (= cell_7_9 7) (= cell_7_9 8) (= cell_7_9 9))))
(assert
 (let (($x1023 (= cell_8_9 1)))
 (or $x1023 (= cell_8_9 2) (= cell_8_9 3) (= cell_8_9 4) (= cell_8_9 5) (= cell_8_9 6) (= cell_8_9 7) (= cell_8_9 8) (= cell_8_9 9))))
(assert
 (let (($x2138 (= cell_9_9 1)))
 (or $x2138 (= cell_9_9 2) (= cell_9_9 3) (= cell_9_9 4) (= cell_9_9 5) (= cell_9_9 6) (= cell_9_9 7) (= cell_9_9 8) (= cell_9_9 9))))
(assert
 (and (distinct cell_1_1 cell_1_2 cell_1_3 cell_1_4 cell_1_5 cell_1_6 cell_1_7 cell_1_8 cell_1_9) true))
(assert
 (and (distinct cell_2_1 cell_2_2 cell_2_3 cell_2_4 cell_2_5 cell_2_6 cell_2_7 cell_2_8 cell_2_9) true))
(assert
 (and (distinct cell_3_1 cell_3_2 cell_3_3 cell_3_4 cell_3_5 cell_3_6 cell_3_7 cell_3_8 cell_3_9) true))
(assert
 (and (distinct cell_4_1 cell_4_2 cell_4_3 cell_4_4 cell_4_5 cell_4_6 cell_4_7 cell_4_8 cell_4_9) true))
(assert
 (and (distinct cell_5_1 cell_5_2 cell_5_3 cell_5_4 cell_5_5 cell_5_6 cell_5_7 cell_5_8 cell_5_9) true))
(assert
 (and (distinct cell_6_1 cell_6_2 cell_6_3 cell_6_4 cell_6_5 cell_6_6 cell_6_7 cell_6_8 cell_6_9) true))
(assert
 (and (distinct cell_7_1 cell_7_2 cell_7_3 cell_7_4 cell_7_5 cell_7_6 cell_7_7 cell_7_8 cell_7_9) true))
(assert
 (and (distinct cell_8_1 cell_8_2 cell_8_3 cell_8_4 cell_8_5 cell_8_6 cell_8_7 cell_8_8 cell_8_9) true))
(assert
 (and (distinct cell_9_1 cell_9_2 cell_9_3 cell_9_4 cell_9_5 cell_9_6 cell_9_7 cell_9_8 cell_9_9) true))
(assert
 (and (distinct cell_1_1 cell_2_1 cell_3_1 cell_4_1 cell_5_1 cell_6_1 cell_7_1 cell_8_1 cell_9_1) true))
(assert
 (and (distinct cell_1_2 cell_2_2 cell_3_2 cell_4_2 cell_5_2 cell_6_2 cell_7_2 cell_8_2 cell_9_2) true))
(assert
 (and (distinct cell_1_3 cell_2_3 cell_3_3 cell_4_3 cell_5_3 cell_6_3 cell_7_3 cell_8_3 cell_9_3) true))
(assert
 (and (distinct cell_1_4 cell_2_4 cell_3_4 cell_4_4 cell_5_4 cell_6_4 cell_7_4 cell_8_4 cell_9_4) true))
(assert
 (and (distinct cell_1_5 cell_2_5 cell_3_5 cell_4_5 cell_5_5 cell_6_5 cell_7_5 cell_8_5 cell_9_5) true))
(assert
 (and (distinct cell_1_6 cell_2_6 cell_3_6 cell_4_6 cell_5_6 cell_6_6 cell_7_6 cell_8_6 cell_9_6) true))
(assert
 (and (distinct cell_1_7 cell_2_7 cell_3_7 cell_4_7 cell_5_7 cell_6_7 cell_7_7 cell_8_7 cell_9_7) true))
(assert
 (and (distinct cell_1_8 cell_2_8 cell_3_8 cell_4_8 cell_5_8 cell_6_8 cell_7_8 cell_8_8 cell_9_8) true))
(assert
 (and (distinct cell_1_9 cell_2_9 cell_3_9 cell_4_9 cell_5_9 cell_6_9 cell_7_9 cell_8_9 cell_9_9) true))
(assert
 (and (distinct cell_1_1 cell_1_2 cell_1_3 cell_2_1 cell_2_2 cell_2_3 cell_3_1 cell_3_2 cell_3_3) true))
(assert
 (and (distinct cell_1_4 cell_1_5 cell_1_6 cell_2_4 cell_2_5 cell_2_6 cell_3_4 cell_3_5 cell_3_6) true))
(assert
 (and (distinct cell_1_7 cell_1_8 cell_1_9 cell_2_7 cell_2_8 cell_2_9 cell_3_7 cell_3_8 cell_3_9) true))
(assert
 (and (distinct cell_4_1 cell_4_2 cell_4_3 cell_5_1 cell_5_2 cell_5_3 cell_6_1 cell_6_2 cell_6_3) true))
(assert
 (and (distinct cell_4_4 cell_4_5 cell_4_6 cell_5_4 cell_5_5 cell_5_6 cell_6_4 cell_6_5 cell_6_6) true))
(assert
 (and (distinct cell_4_7 cell_4_8 cell_4_9 cell_5_7 cell_5_8 cell_5_9 cell_6_7 cell_6_8 cell_6_9) true))
(assert
 (and (distinct cell_7_1 cell_7_2 cell_7_3 cell_8_1 cell_8_2 cell_8_3 cell_9_1 cell_9_2 cell_9_3) true))
(assert
 (and (distinct cell_7_4 cell_7_5 cell_7_6 cell_8_4 cell_8_5 cell_8_6 cell_9_4 cell_9_5 cell_9_6) true))
(assert
 (and (distinct cell_7_7 cell_7_8 cell_7_9 cell_8_7 cell_8_8 cell_8_9 cell_9_7 cell_9_8 cell_9_9) true))
(assert
 (let (($x6315 (and (distinct cell_5_9 cell_6_8 cell_7_7 cell_8_6) true)))
 (let (($x6010 (and (distinct cell_2_9 cell_3_8 cell_4_7 cell_5_6 cell_6_5 cell_7_4 cell_8_3 cell_9_2) true)))
 (let (($x881 (and (distinct cell_1_8 cell_2_7 cell_3_6 cell_4_5 cell_5_4 cell_6_3 cell_7_2 cell_8_1) true)))
 (let (($x5126 (and (distinct cell_1_5 cell_2_4 cell_3_3 cell_4_2) true)))
 (let (($x2167 (and (distinct cell_5_1 cell_6_2 cell_7_3 cell_8_4) true)))
 (let (($x7145 (and (distinct cell_2_1 cell_3_2 cell_4_3 cell_5_4 cell_6_5 cell_7_6 cell_8_7 cell_9_8) true)))
 (let (($x4117 (and (distinct cell_1_2 cell_2_3 cell_3_4 cell_4_5 cell_5_6 cell_6_7 cell_7_8 cell_8_9) true)))
 (let (($x1287 (and (distinct cell_1_5 cell_2_6 cell_3_7 cell_4_8) true)))
 (and $x1287 $x4117 $x7145 $x2167 $x5126 $x881 $x6010 $x6315))))))))))
(assert
 (= cell_7_7 1))
(check-sat)
